NAME          
ROWS
 N  OBJ
 L  c1
COLUMNS
    MARKER    'MARKER'                 'INTORG'
    x[1]      c1        514
    x[1]      OBJ       -445
    x[2]      c1        331
    x[2]      OBJ       -327
    x[3]      c1        696
    x[3]      OBJ       -768
    x[4]      c1        795
    x[4]      OBJ       -765
    x[5]      c1        347
    x[5]      OBJ       -339
    x[6]      c1        18
    x[6]      OBJ       -63
    x[7]      c1        49
    x[7]      OBJ       -145
    x[8]      c1        766
    x[8]      OBJ       -689
    x[9]      c1        904
    x[9]      OBJ       -987
    x[10]     c1        295
    x[10]     OBJ       -249
    x[11]     c1        601
    x[11]     OBJ       -568
    x[12]     c1        168
    x[12]     OBJ       -95
    x[13]     c1        380
    x[13]     OBJ       -365
    x[14]     c1        505
    x[14]     OBJ       -425
    x[15]     c1        809
    x[15]     OBJ       -713
    x[16]     c1        340
    x[16]     OBJ       -327
    x[17]     c1        772
    x[17]     OBJ       -791
    x[18]     c1        106
    x[18]     OBJ       -192
    x[19]     c1        94
    x[19]     OBJ       -149
    x[20]     c1        9
    x[20]     OBJ       -60
RHS
    rhs       c1        4250
RANGES
BOUNDS
 BV bounds    x[1]
 BV bounds    x[2]
 BV bounds    x[3]
 BV bounds    x[4]
 BV bounds    x[5]
 BV bounds    x[6]
 BV bounds    x[7]
 BV bounds    x[8]
 BV bounds    x[9]
 BV bounds    x[10]
 BV bounds    x[11]
 BV bounds    x[12]
 BV bounds    x[13]
 BV bounds    x[14]
 BV bounds    x[15]
 BV bounds    x[16]
 BV bounds    x[17]
 BV bounds    x[18]
 BV bounds    x[19]
 BV bounds    x[20]
ENDATA
